p wcnf 111 166 167 
1 -77 12 0 
1 33 19 0 
1 5 -32 0 
1 -72 -48 0 
1 -110 -41 0 
1 33 -103 0 
1 -73 41 0 
1 105 -51 0 
1 -12 -41 0 
1 -10 -32 0 
1 -104 -67 0 
1 -25 77 0 
1 9 -41 0 
1 -32 -106 0 
1 75 7 0 
1 37 26 0 
1 54 46 0 
1 46 -51 0 
1 84 -100 0 
1 94 -75 0 
1 -33 -66 0 
1 -12 -69 0 
1 83 74 0 
1 22 -103 0 
1 -75 -104 0 
1 30 -78 0 
1 -57 109 0 
1 -53 -111 0 
1 -80 -56 0 
1 49 105 0 
1 49 -99 0 
1 77 35 0 
1 -8 -21 0 
1 -12 28 0 
1 -111 12 0 
1 -104 2 0 
1 104 1 0 
1 -14 52 0 
1 -108 15 0 
1 92 -28 0 
1 -99 -19 0 
1 -95 68 0 
1 -23 -22 0 
1 110 46 0 
1 -8 27 0 
1 -29 -11 0 
1 -75 20 0 
1 -17 -81 0 
1 -110 -46 0 
1 -107 -30 0 
1 97 45 0 
1 5 -110 0 
1 105 -26 0 
1 -43 -44 0 
1 71 -83 0 
1 -50 -75 0 
1 -49 110 0 
1 -62 16 0 
1 90 35 0 
1 -71 -10 0 
1 43 23 0 
1 67 61 0 
1 37 -2 0 
1 -47 -110 0 
1 80 101 0 
1 -26 91 0 
1 -52 -40 0 
1 11 -14 0 
1 81 -26 0 
1 9 -13 0 
1 76 -21 0 
1 82 -33 0 
1 6 -105 0 
1 90 -111 0 
1 55 100 0 
1 -109 75 0 
1 109 -95 0 
1 79 -111 0 
1 40 82 0 
1 43 6 0 
1 104 -74 0 
1 90 -25 0 
1 -55 51 0 
1 -3 49 0 
1 -51 -41 0 
1 96 65 0 
1 28 -97 0 
1 -78 -16 0 
1 -40 101 0 
1 72 -58 0 
1 -62 103 0 
1 -62 59 0 
1 17 43 0 
1 -102 -85 0 
1 -100 -37 0 
1 93 -72 0 
1 45 -67 0 
1 -97 -68 0 
1 -13 2 0 
1 -64 -56 0 
1 -90 -28 0 
1 -42 -5 0 
1 -3 13 0 
1 -107 64 0 
1 66 -47 0 
1 84 29 0 
1 -76 5 0 
1 9 -70 0 
1 -2 69 0 
1 31 89 0 
1 59 62 0 
1 91 21 0 
1 71 -39 0 
1 -71 -80 0 
1 39 -12 0 
1 -91 63 0 
1 95 106 0 
1 -99 36 0 
1 30 73 0 
1 1 56 0 
1 -45 -29 0 
1 -108 100 0 
1 -81 -104 0 
1 -11 24 0 
1 -30 76 0 
1 -60 -23 0 
1 -110 41 0 
1 58 104 0 
1 14 84 0 
1 95 -81 0 
1 36 -100 0 
1 38 -46 0 
1 61 91 0 
1 103 -104 0 
1 2 -47 0 
1 61 -55 0 
1 -21 -13 0 
1 18 20 0 
1 92 27 0 
1 -15 72 0 
1 -38 27 0 
1 95 -60 0 
1 95 90 0 
1 82 25 0 
1 -37 31 0 
1 96 48 0 
1 64 -102 0 
1 -38 91 0 
1 23 -44 0 
1 25 91 0 
1 -11 42 0 
1 48 -22 0 
1 18 30 0 
1 -1 71 0 
1 70 33 0 
1 -58 53 0 
1 -27 79 0 
1 87 -2 0 
1 66 -91 0 
1 1 -22 0 
1 -71 -21 0 
1 -33 -42 0 
1 -71 -48 0 
1 31 -51 0 
1 83 -10 0 
1 11 -63 0 
